r=6; % radius of tesselated grid (const)
n=126; % how many numbers (const)
t=10; % number of tunnels (variable, adjust second array declaration)

snake = array2d(1..n,1..3,[
 %x,y,z, %n
  6,0,_, %1
  _,_,_, %2
  _,_,_, %3
  _,_,_, %4
  _,_,_, %5
  6,-3,_, %6
  _,_,_, %7
  4,-3,_, %8
  _,_,_, %9
  _,_,_, %10
  _,_,_, %11
  _,_,_, %12
  _,_,_, %13
  3,_,0, %14
  _,_,_, %15
  _,_,_, %16
  _,_,_, %17
  5,-4,_, %18
  _,_,_, %19
  _,_,_, %20
  _,_,_, %21
  _,_,_, %22
  _,_,_, %23
  _,_,_, %24
  3,_,3, %25
  _,_,_, %26
  _,_,_, %27
  _,_,_, %28
  _,_,_, %29
  1,_,3, %30
  _,_,_, %31
  _,_,_, %32
  _,_,_, %33
  0,_,5, %34
  _,_,_, %35
  _,_,_, %36
  _,_,_, %37
  _,_,_, %38
  _,_,_, %39
  _,_,_, %40
  _,_,_, %41
  _,-1,4, %42
  _,_,_, %43
  _,_,_, %44
  _,_,_, %45
  _,_,_, %46
  _,_,_, %47
  _,_,_, %48
  _,-2,6, %49
  _,_,_, %50
  _,_,_, %51
  _,_,_, %52
  _,_,_, %53
  _,2,3, %54
  _,_,_, %55
  _,_,_, %56
  _,_,_, %57
  _,5,1, %58
  _,_,_, %59
  _,_,_, %60
  _,_,_, %61
  _,_,_, %62
  _,_,_, %63
  _,_,_, %64
  _,_,_, %65
  _,_,_, %66
  _,5,-1, %67
  _,_,_, %68
  _,_,_, %69
  _,_,_, %70
  _,_,_, %71
  _,1,3, %72
  _,_,_, %73
  _,0,3, %74
  _,_,_, %75
  _,-1,3, %76
  _,-1,2, %77
  _,_,_, %78
  _,_,_, %79
  _,_,_, %80
  1,_,1, %81
  _,_,_, %82
  _,_,_, %83
  _,_,_, %84
  _,_,_, %85
  _,_,_, %86
  _,_,_, %87
  _,_,_, %88
  _,_,_, %89
  _,_,_, %90
  _,_,_, %91
  _,_,_, %92
  _,_,_, %93
  _,_,_, %94
  _,_,_, %95
  0,4,_, %96
  _,_,_, %97
  _,_,_, %98
  _,_,_, %99
  _,_,_, %100
  _,_,_, %101
  _,_,_, %102
  _,_,_, %103
  3,2,_, %104
  _,_,_, %105
  _,_,_, %106
  _,_,_, %107
  _,_,_, %108
  4,-2,_, %109
  _,_,_, %110
  _,_,_, %111
  _,_,_, %112
  _,_,_, %113
  _,_,_, %114
  _,_,_, %115
  _,_,_, %116
  2,4,_, %117
  _,_,_, %118
  _,_,_, %119
  _,_,_, %120
  _,_,_, %121
  _,_,_, %122
  _,_,_, %123
  _,_,_, %124
  _,_,_, %125
  _,3,0 %126
]);

tunnels = array3d(1..t,1..2,1..3,[
    1,0,_, %coorinate couple for a tunnel
    1,_,0,
    
    _,0,-1,
    0,_,-1,
    
    0,1,_,
    _,1,0,
    
    -6,_,3,
    -6,_,4,
    
    0,_,6,
    -1,_,6,
    
    0,_,4,
    -1,_,4,
    
    _,0,-4,
    _,-1,-4,
    
    4,1,_,
    5,1,_,
    
    2,3,_,
    2,2,_,
    
    1,_,-5,
    2,_,-5

]);